NAME : morphed22-2-9
COMMENT : Generated using the function morphInstances from the R-package netgen (Bossek,2015) - Number of clusters: 2 Alpha: 0.5
TYPE : TSP
DIMENSION : 22
EDGE_WEIGHT_TYPE : EUC_2D
NODE_COORD_SECTION
1 48.7270912337 22.7874577828
2 35.0879736618 6.9831950858
3 17.8731688034 52.3318007745
4 11.5712340746 79.2735659997
5 57.2858790882 30.2925960285
6 8.6691076178 42.9322239926
7 20.9701254696 80.3052913994
8 21.2708936162 72.4025642461
9 70.6131233552 17.5841603512
10 86.9104380986 61.6578617716
11 6.8080551675 49.7407585334
12 2.3654067938 83.0814726364
13 86.189627911 3.8532197326
14 22.0253377642 80.2350525989
15 60.0705180732 59.6458429578
16 34.6165206182 80.9550057533
17 59.6144109193 15.7095359815
18 92.8959579687 42.8882697515
19 29.2385530982 91.1644706447
20 61.4392863136 45.3042739006
21 83.9114288816 37.1169409138
22 1.2266266094 34.3290847739
EOF
